NAME: R10-280319-164254.tsp
TYPE: TSP
COMMENT: Random data
DIMENSION: 10
EDGE_WEIGHT_TYPE: EXPLICIT
EDGE_WEIGHT_FORMAT: FULL_MATRIX
DISPLAY_DATA_TYPE: NO_DISPLAY
EDGE_WEIGHT_SECTION
 0 55 26 59 86 22 68  3 80 99 
26  0 76 70  6  0 88 35 60 56 
64 47  0 55  6 46 87 30 20  9 
53  1 53  0 12 78 42 62  6 79 
44 48 18 55  0 79  8 93 73 20 
12 76 21 53 79  0 84 79 22 25 
67 48 80 71 56  2  0 58 49 79 
46 14 97 28 43 94  9  0 90 11 
37  8 68 47 13 72 67 17  0 43 
88  0 21 68 32 56 17 94 57  0 
EOF